42
1 0 10
2 0 15
2 1 42
3 0 37
3 1 4
3 2 26
4 0 43
4 1 13
4 2 27
4 3 25
5 0 14
5 1 47
5 2 35
5 3 12
5 4 47
6 0 37
6 1 7
6 2 13
6 3 26
6 4 31
6 5 30
7 0 37
7 1 43
7 2 38
7 3 34
7 4 2
7 5 12
7 6 44
8 0 44
8 1 12
8 2 19
8 3 46
8 4 8
8 5 30
8 6 41
8 7 36
9 0 29
9 1 47
9 2 20
9 3 15
9 4 6
9 5 24
9 6 20
9 7 45
9 8 14
10 0 31
10 1 13
10 2 41
10 3 8
10 4 39
10 5 29
10 6 38
10 7 19
10 8 3
10 9 26
11 0 20
11 1 40
11 2 18
11 3 17
11 4 1
11 5 47
11 6 37
11 7 29
11 8 34
11 9 27
11 10 19
12 0 36
12 1 19
12 2 43
12 3 35
12 4 42
12 5 35
12 6 16
12 7 3
12 8 17
12 9 24
12 10 43
12 11 13
13 0 33
13 1 2
13 2 4
13 3 4
13 4 49
13 5 16
13 6 37
13 7 48
13 8 38
13 9 43
13 10 40
13 11 48
13 12 49
14 0 10
14 1 21
14 2 42
14 3 26
14 4 32
14 5 38
14 6 6
14 7 31
14 8 6
14 9 10
14 10 11
14 11 38
14 12 30
14 13 3
15 0 48
15 1 12
15 2 26
15 3 48
15 4 14
15 5 15
15 6 41
15 7 15
15 8 34
15 9 27
15 10 42
15 11 30
15 12 7
15 13 3
15 14 10
16 0 47
16 1 2
16 2 25
16 3 5
16 4 3
16 5 27
16 6 49
16 7 47
16 8 24
16 9 39
16 10 26
16 11 14
16 12 41
16 13 9
16 14 23
16 15 3
17 0 9
17 1 12
17 2 7
17 3 5
17 4 18
17 5 23
17 6 26
17 7 10
17 8 2
17 9 15
17 10 45
17 11 8
17 12 20
17 13 7
17 14 28
17 15 32
17 16 2
18 0 40
18 1 5
18 2 35
18 3 20
18 4 13
18 5 48
18 6 30
18 7 32
18 8 12
18 9 15
18 10 40
18 11 8
18 12 49
18 13 3
18 14 31
18 15 34
18 16 33
18 17 46
19 0 43
19 1 6
19 2 35
19 3 2
19 4 15
19 5 14
19 6 15
19 7 35
19 8 45
19 9 7
19 10 3
19 11 16
19 12 10
19 13 23
19 14 3
19 15 46
19 16 4
19 17 44
19 18 12
20 0 40
20 1 2
20 2 31
20 3 36
20 4 40
20 5 34
20 6 31
20 7 15
20 8 22
20 9 43
20 10 32
20 11 21
20 12 27
20 13 37
20 14 35
20 15 26
20 16 40
20 17 45
20 18 47
20 19 14
21 0 25
21 1 5
21 2 24
21 3 49
21 4 8
21 5 8
21 6 12
21 7 32
21 8 6
21 9 31
21 10 37
21 11 8
21 12 10
21 13 25
21 14 6
21 15 28
21 16 40
21 17 25
21 18 39
21 19 27
21 20 20
22 0 45
22 1 13
22 2 23
22 3 40
22 4 20
22 5 48
22 6 31
22 7 12
22 8 49
22 9 40
22 10 28
22 11 42
22 12 26
22 13 35
22 14 31
22 15 39
22 16 29
22 17 2
22 18 6
22 19 38
22 20 41
22 21 9
23 0 30
23 1 9
23 2 38
23 3 9
23 4 24
23 5 7
23 6 1
23 7 22
23 8 26
23 9 29
23 10 46
23 11 44
23 12 12
23 13 30
23 14 36
23 15 9
23 16 21
23 17 4
23 18 10
23 19 27
23 20 37
23 21 14
23 22 23
24 0 38
24 1 36
24 2 39
24 3 45
24 4 7
24 5 5
24 6 2
24 7 33
24 8 13
24 9 35
24 10 10
24 11 29
24 12 20
24 13 16
24 14 31
24 15 30
24 16 24
24 17 42
24 18 27
24 19 38
24 20 6
24 21 1
24 22 42
24 23 22
25 0 49
25 1 26
25 2 23
25 3 23
25 4 39
25 5 13
25 6 22
25 7 6
25 8 17
25 9 33
25 10 36
25 11 23
25 12 32
25 13 47
25 14 5
25 15 11
25 16 4
25 17 26
25 18 8
25 19 7
25 20 38
25 21 24
25 22 9
25 23 42
25 24 5
26 0 27
26 1 40
26 2 16
26 3 35
26 4 28
26 5 25
26 6 29
26 7 32
26 8 20
26 9 2
26 10 22
26 11 10
26 12 41
26 13 2
26 14 5
26 15 41
26 16 49
26 17 3
26 18 45
26 19 16
26 20 13
26 21 11
26 22 6
26 23 34
26 24 34
26 25 21
27 0 36
27 1 39
27 2 21
27 3 38
27 4 6
27 5 32
27 6 27
27 7 41
27 8 11
27 9 35
27 10 34
27 11 34
27 12 3
27 13 40
27 14 36
27 15 43
27 16 8
27 17 20
27 18 5
27 19 41
27 20 3
27 21 20
27 22 45
27 23 13
27 24 46
27 25 36
27 26 17
28 0 42
28 1 9
28 2 9
28 3 45
28 4 41
28 5 9
28 6 26
28 7 14
28 8 27
28 9 47
28 10 43
28 11 13
28 12 5
28 13 13
28 14 24
28 15 29
28 16 30
28 17 7
28 18 36
28 19 5
28 20 31
28 21 19
28 22 5
28 23 2
28 24 39
28 25 7
28 26 3
28 27 43
29 0 41
29 1 32
29 2 12
29 3 38
29 4 25
29 5 40
29 6 34
29 7 23
29 8 38
29 9 22
29 10 28
29 11 17
29 12 37
29 13 38
29 14 38
29 15 2
29 16 6
29 17 1
29 18 32
29 19 31
29 20 32
29 21 4
29 22 11
29 23 19
29 24 21
29 25 17
29 26 4
29 27 31
29 28 2
30 0 30
30 1 27
30 2 3
30 3 17
30 4 6
30 5 3
30 6 49
30 7 45
30 8 33
30 9 23
30 10 38
30 11 9
30 12 3
30 13 5
30 14 29
30 15 44
30 16 12
30 17 34
30 18 37
30 19 26
30 20 13
30 21 11
30 22 35
30 23 19
30 24 26
30 25 35
30 26 21
30 27 1
30 28 6
30 29 9
31 0 12
31 1 43
31 2 12
31 3 30
31 4 46
31 5 21
31 6 2
31 7 11
31 8 38
31 9 1
31 10 5
31 11 43
31 12 45
31 13 29
31 14 38
31 15 47
31 16 11
31 17 31
31 18 45
31 19 19
31 20 17
31 21 47
31 22 31
31 23 29
31 24 39
31 25 31
31 26 8
31 27 11
31 28 22
31 29 36
31 30 10
32 0 22
32 1 15
32 2 44
32 3 49
32 4 36
32 5 37
32 6 39
32 7 4
32 8 36
32 9 35
32 10 1
32 11 34
32 12 20
32 13 9
32 14 9
32 15 49
32 16 30
32 17 11
32 18 45
32 19 38
32 20 49
32 21 15
32 22 12
32 23 1
32 24 28
32 25 28
32 26 23
32 27 8
32 28 26
32 29 32
32 30 28
32 31 3
33 0 3
33 1 36
33 2 45
33 3 21
33 4 23
33 5 6
33 6 18
33 7 26
33 8 23
33 9 42
33 10 18
33 11 43
33 12 37
33 13 28
33 14 36
33 15 21
33 16 10
33 17 42
33 18 48
33 19 30
33 20 4
33 21 11
33 22 18
33 23 13
33 24 19
33 25 41
33 26 12
33 27 37
33 28 49
33 29 35
33 30 8
33 31 33
33 32 21
34 0 24
34 1 3
34 2 15
34 3 11
34 4 27
34 5 11
34 6 41
34 7 14
34 8 11
34 9 41
34 10 15
34 11 41
34 12 15
34 13 38
34 14 20
34 15 33
34 16 8
34 17 17
34 18 39
34 19 37
34 20 19
34 21 25
34 22 25
34 23 38
34 24 6
34 25 31
34 26 37
34 27 40
34 28 16
34 29 43
34 30 1
34 31 8
34 32 7
34 33 39
35 0 5
35 1 22
35 2 44
35 3 31
35 4 2
35 5 2
35 6 11
35 7 26
35 8 28
35 9 40
35 10 21
35 11 24
35 12 33
35 13 29
35 14 30
35 15 45
35 16 27
35 17 26
35 18 7
35 19 3
35 20 42
35 21 47
35 22 9
35 23 35
35 24 5
35 25 43
35 26 38
35 27 38
35 28 31
35 29 9
35 30 18
35 31 44
35 32 27
35 33 28
35 34 49
36 0 5
36 1 20
36 2 29
36 3 16
36 4 45
36 5 29
36 6 5
36 7 16
36 8 41
36 9 35
36 10 19
36 11 25
36 12 45
36 13 35
36 14 26
36 15 32
36 16 33
36 17 42
36 18 35
36 19 27
36 20 42
36 21 16
36 22 44
36 23 18
36 24 35
36 25 6
36 26 31
36 27 26
36 28 31
36 29 8
36 30 6
36 31 7
36 32 22
36 33 45
36 34 42
36 35 25
37 0 43
37 1 9
37 2 22
37 3 9
37 4 28
37 5 20
37 6 15
37 7 28
37 8 2
37 9 5
37 10 20
37 11 12
37 12 13
37 13 3
37 14 18
37 15 2
37 16 45
37 17 10
37 18 20
37 19 3
37 20 16
37 21 37
37 22 3
37 23 5
37 24 28
37 25 35
37 26 33
37 27 29
37 28 37
37 29 40
37 30 42
37 31 40
37 32 35
37 33 31
37 34 45
37 35 28
37 36 12
38 0 24
38 1 20
38 2 24
38 3 19
38 4 6
38 5 21
38 6 49
38 7 6
38 8 24
38 9 42
38 10 14
38 11 10
38 12 7
38 13 38
38 14 47
38 15 4
38 16 44
38 17 17
38 18 15
38 19 42
38 20 42
38 21 44
38 22 8
38 23 21
38 24 3
38 25 36
38 26 43
38 27 10
38 28 10
38 29 47
38 30 48
38 31 12
38 32 6
38 33 30
38 34 20
38 35 25
38 36 14
38 37 24
39 0 17
39 1 42
39 2 13
39 3 38
39 4 16
39 5 21
39 6 42
39 7 15
39 8 41
39 9 15
39 10 30
39 11 36
39 12 30
39 13 1
39 14 30
39 15 34
39 16 35
39 17 15
39 18 1
39 19 36
39 20 23
39 21 29
39 22 32
39 23 22
39 24 18
39 25 40
39 26 21
39 27 38
39 28 23
39 29 26
39 30 37
39 31 7
39 32 24
39 33 20
39 34 2
39 35 17
39 36 2
39 37 44
39 38 39
40 0 7
40 1 32
40 2 11
40 3 8
40 4 46
40 5 14
40 6 9
40 7 43
40 8 1
40 9 35
40 10 26
40 11 40
40 12 16
40 13 49
40 14 33
40 15 36
40 16 31
40 17 31
40 18 7
40 19 46
40 20 34
40 21 20
40 22 1
40 23 40
40 24 29
40 25 1
40 26 10
40 27 29
40 28 24
40 29 38
40 30 20
40 31 34
40 32 22
40 33 7
40 34 46
40 35 29
40 36 4
40 37 41
40 38 47
40 39 1
41 0 6
41 1 37
41 2 37
41 3 48
41 4 8
41 5 5
41 6 39
41 7 39
41 8 14
41 9 9
41 10 16
41 11 13
41 12 6
41 13 47
41 14 8
41 15 25
41 16 41
41 17 19
41 18 5
41 19 17
41 20 43
41 21 39
41 22 16
41 23 7
41 24 16
41 25 15
41 26 26
41 27 7
41 28 38
41 29 32
41 30 28
41 31 16
41 32 22
41 33 2
41 34 1
41 35 47
41 36 8
41 37 4
41 38 43
41 39 16
41 40 31
